NAME : problems/30-tsp/instance-2.tsp
COMMENT : No Comment
TYPE : TSP
DIMENSION: 30
EDGE_WEIGHT_TYPE : EUC_2D
NODE_COORD_SECTION
1 4533 7854 
2 9910 8561 
3 8720 6172 
4 3608 3222 
5 3112 3046 
6 1028 9666 
7 4503 3449 
8 1416 5827 
9 8520 7159 
10 2434 6079 
11 1530 1443 
12 8213 4957 
13 5950 330 
14 6975 6777 
15 6671 7044 
16 7471 5125 
17 5406 3437 
18 2283 299 
19 8317 1139 
20 6002 6608 
21 2266 1832 
22 8755 4044 
23 5049 9198 
24 2024 8210 
25 3239 6452 
26 3514 5243 
27 9527 3881 
28 4472 706 
29 1091 7015 
30 2351 6256 
EOF
